NAME : zqloutput/eax-hard-simple-rescaleandround/50-2.tsp
TYPE : TSP
DIMENSION : 50
EDGE_WEIGHT_TYPE : EUC_2D
NODE_COORD_SECTION
1 612054 425533
2 77920 173459
3 397081 345870
4 993392 457984
5 25151 889959
6 66194 78457
7 195622 495677
8 406687 1323
9 261983 416941
10 304433 933813
11 47418 470111
12 398766 298516
13 218989 655889
14 155760 102757
15 297952 674874
16 992947 437788
17 296272 866428
18 552534 654010
19 42411 195065
20 324404 980610
21 519371 223341
22 667509 462260
23 98133 789592
24 158447 571990
25 727826 386066
26 971278 422146
27 764505 427673
28 221763 284186
29 237904 689140
30 816799 517216
31 14731 618781
32 145299 78447
33 430260 826051
34 972819 839061
35 201279 210204
36 996997 614593
37 638454 687558
38 905095 179305
39 425481 621586
40 78578 550670
41 675089 574264
42 135122 819648
43 644437 705619
44 846339 549307
45 980032 537666
46 886530 661385
47 997770 705010
48 652062 960430
49 553602 153187
50 71595 30842
EOF
